NAME : 11
COMMENT : tspgen
TYPE : TSP
DIMENSION : 11
EDGE_WEIGHT_TYPE : EUC_2D
NODE_COORD_SECTION
1 10019777916 10094653792
2 10004728520 9949344824
3 10055191628 10036015960
4 10092949865 10057934771
5 10054611152 10071132565
6 10082267522 10038552322
7 10052509276 10049845346
8 10031828425 10103969693
9 10032647576 10096361101
10 10158341924 10019928905
11 10017271073 10060055018
EOF